c colouring generated by benchmark framework
p edge 96 1368
v 1 9
v 2 5
v 3 12
v 4 2
v 5 13
v 6 6
v 7 8
v 8 3
v 9 7
v 10 14
v 11 1
v 12 11
v 13 2
v 14 0
v 15 6
v 16 3
v 17 1
v 18 5
v 19 4
v 20 14
v 21 12
v 22 11
v 23 10
v 24 7
v 25 10
v 26 3
v 27 1
v 28 8
v 29 4
v 30 12
v 31 11
v 32 5
v 33 6
v 34 2
v 35 14
v 36 0
v 37 8
v 38 12
v 39 9
v 40 7
v 41 2
v 42 1
v 43 3
v 44 10
v 45 14
v 46 0
v 47 13
v 48 6
v 49 5
v 50 7
v 51 14
v 52 11
v 53 8
v 54 10
v 55 13
v 56 6
v 57 2
v 58 3
v 59 12
v 60 4
v 61 12
v 62 13
v 63 10
v 64 5
v 65 6
v 66 2
v 67 7
v 68 8
v 69 9
v 70 1
v 71 0
v 72 3
v 73 0
v 74 14
v 75 3
v 76 13
v 77 7
v 78 8
v 79 6
v 80 12
v 81 5
v 82 10
v 83 4
v 84 1
v 85 7
v 86 2
v 87 8
v 88 14
v 89 5
v 90 9
v 91 10
v 92 4
v 93 3
v 94 6
v 95 11
v 96 12
